\* Modelname *\
Minimize
OBJ: - 0.001 Charge_at_node_0_Drone_0 - 0.001 Charge_at_node_10_Drone_0
 - 0.001 Charge_at_node_1_Drone_0 - 0.001 Charge_at_node_2_Drone_0
 - 0.001 Charge_at_node_3_Drone_0 - 0.001 Charge_at_node_4_Drone_0
 - 0.001 Charge_at_node_5_Drone_0 - 0.001 Charge_at_node_6_Drone_0
 - 0.001 Charge_at_node_7_Drone_0 - 0.001 Charge_at_node_8_Drone_0
 - 0.001 Charge_at_node_9_Drone_0 + 11.1803398875 Link0_10_Drone_0
 + 6.41474083654 Link0_1_Drone_0 + 12.4640924258 Link0_2_Drone_0
 + 19.1307135256 Link0_8_Drone_0 + 11.1803398875 Link0_9_Drone_0
 + 11.1803398875 Link10_0_Drone_0 + 7.03199118316 Link10_1_Drone_0
 + 5.61725911811 Link10_2_Drone_0 + 13.7006897637 Link10_3_Drone_0
 + 13.1871338812 Link10_4_Drone_0 + 13.201310541 Link10_5_Drone_0
 + 14.450854646 Link10_6_Drone_0 + 14.236885193 Link10_7_Drone_0
 + 9.99420832282 Link10_8_Drone_0 + 6.41474083654 Link1_0_Drone_0
 + 7.03199118316 Link1_10_Drone_0 + 6.20181425069 Link1_2_Drone_0
 + 18.6899866239 Link1_3_Drone_0 + 19.6442001619 Link1_4_Drone_0
 + 16.8041810274 Link1_8_Drone_0 + 7.03199118316 Link1_9_Drone_0
 + 12.4640924258 Link2_0_Drone_0 + 5.61725911811 Link2_10_Drone_0
 + 6.20181425069 Link2_1_Drone_0 + 12.7295915095 Link2_3_Drone_0
 + 14.6716495323 Link2_4_Drone_0 + 16.0452921444 Link2_5_Drone_0
 + 17.8861287036 Link2_6_Drone_0 + 18.774772968 Link2_7_Drone_0
 + 14.8047627472 Link2_8_Drone_0 + 5.61725911811 Link2_9_Drone_0
 + 13.7006897637 Link3_10_Drone_0 + 18.6899866239 Link3_1_Drone_0
 + 12.7295915095 Link3_2_Drone_0 + 5.98198963556 Link3_4_Drone_0
 + 9.69435402696 Link3_5_Drone_0 + 12.173154891 Link3_6_Drone_0
 + 15.9297771485 Link3_7_Drone_0 + 14.440418969 Link3_8_Drone_0
 + 13.7006897637 Link3_9_Drone_0 + 13.1871338812 Link4_10_Drone_0
 + 19.6442001619 Link4_1_Drone_0 + 14.6716495323 Link4_2_Drone_0
 + 5.98198963556 Link4_3_Drone_0 + 3.80380073085 Link4_5_Drone_0
 + 6.23195795878 Link4_6_Drone_0 + 10.29256042 Link4_7_Drone_0
 + 9.80045407111 Link4_8_Drone_0 + 13.1871338812 Link4_9_Drone_0
 + 13.201310541 Link5_10_Drone_0 + 16.0452921444 Link5_2_Drone_0
 + 9.69435402696 Link5_3_Drone_0 + 3.80380073085 Link5_4_Drone_0
 + 2.49419325635 Link5_6_Drone_0 + 6.55369361505 Link5_7_Drone_0
 + 6.93077196278 Link5_8_Drone_0 + 13.201310541 Link5_9_Drone_0
 + 14.450854646 Link6_10_Drone_0 + 17.8861287036 Link6_2_Drone_0
 + 12.173154891 Link6_3_Drone_0 + 6.23195795878 Link6_4_Drone_0
 + 2.49419325635 Link6_5_Drone_0 + 4.57664724444 Link6_7_Drone_0
 + 6.40401436601 Link6_8_Drone_0 + 14.450854646 Link6_9_Drone_0
 + 14.236885193 Link7_10_Drone_0 + 18.774772968 Link7_2_Drone_0
 + 15.9297771485 Link7_3_Drone_0 + 10.29256042 Link7_4_Drone_0
 + 6.55369361505 Link7_5_Drone_0 + 4.57664724444 Link7_6_Drone_0
 + 4.31282969754 Link7_8_Drone_0 + 14.236885193 Link7_9_Drone_0
 + 19.1307135256 Link8_0_Drone_0 + 9.99420832282 Link8_10_Drone_0
 + 16.8041810274 Link8_1_Drone_0 + 14.8047627472 Link8_2_Drone_0
 + 14.440418969 Link8_3_Drone_0 + 9.80045407111 Link8_4_Drone_0
 + 6.93077196278 Link8_5_Drone_0 + 6.40401436601 Link8_6_Drone_0
 + 4.31282969754 Link8_7_Drone_0 + 9.99420832282 Link8_9_Drone_0
 + 11.1803398875 Link9_0_Drone_0 + 7.03199118316 Link9_1_Drone_0
 + 5.61725911811 Link9_2_Drone_0 + 13.7006897637 Link9_3_Drone_0
 + 13.1871338812 Link9_4_Drone_0 + 13.201310541 Link9_5_Drone_0
 + 14.450854646 Link9_6_Drone_0 + 14.236885193 Link9_7_Drone_0
 + 9.99420832282 Link9_8_Drone_0 + 2.67 Time_at_node_0_Drone_0
 + 2.67 Time_at_node_10_Drone_0 + 2.67 Time_at_node_1_Drone_0
 + 2.67 Time_at_node_2_Drone_0 + 2.67 Time_at_node_3_Drone_0
 + 2.67 Time_at_node_4_Drone_0 + 2.67 Time_at_node_5_Drone_0
 + 2.67 Time_at_node_6_Drone_0 + 2.67 Time_at_node_7_Drone_0
 + 2.67 Time_at_node_8_Drone_0 + 2.67 Time_at_node_9_Drone_0
Subject To
_C1: - Link0_10_Drone_0 - Link0_1_Drone_0 - Link0_2_Drone_0 - Link0_8_Drone_0
 - Link0_9_Drone_0 + Link10_0_Drone_0 + Link1_0_Drone_0 + Link2_0_Drone_0
 + Link8_0_Drone_0 + Link9_0_Drone_0 = 0
_C10: Link0_9_Drone_0 + Link10_9_Drone_0 + Link1_9_Drone_0 + Link2_9_Drone_0
 + Link3_9_Drone_0 + Link4_9_Drone_0 + Link5_9_Drone_0 + Link6_9_Drone_0
 + Link7_9_Drone_0 + Link8_9_Drone_0 - Link9_0_Drone_0 - Link9_10_Drone_0
 - Link9_1_Drone_0 - Link9_2_Drone_0 - Link9_3_Drone_0 - Link9_4_Drone_0
 - Link9_5_Drone_0 - Link9_6_Drone_0 - Link9_7_Drone_0 - Link9_8_Drone_0
 + 0 Link9_9_Drone_0 = 0
_C100: - Charge_at_node_1_Drone_0 + Charge_at_node_8_Drone_0
 - 1024.02997887 Link8_1_Drone_0 = -999.9
_C101: - Charge_at_node_2_Drone_0 + Charge_at_node_8_Drone_0
 - 1021.17081073 Link8_2_Drone_0 = -999.9
_C102: - Charge_at_node_3_Drone_0 + Charge_at_node_8_Drone_0
 - 1020.64979913 Link8_3_Drone_0 = -999.9
_C103: - Charge_at_node_4_Drone_0 + Charge_at_node_8_Drone_0
 - 1014.01464932 Link8_4_Drone_0 = -999.9
_C104: - Charge_at_node_5_Drone_0 + Charge_at_node_8_Drone_0
 - 1009.91100391 Link8_5_Drone_0 = -999.9
_C105: - Charge_at_node_6_Drone_0 + Charge_at_node_8_Drone_0
 - 1009.15774054 Link8_6_Drone_0 = -999.9
_C106: - Charge_at_node_7_Drone_0 + Charge_at_node_8_Drone_0
 - 1006.16734647 Link8_7_Drone_0 = -999.9
_C107: Charge_at_node_8_Drone_0 - 1014.2917179 Link8_9_Drone_0 = -1000
_C108: Charge_at_node_8_Drone_0 - 1014.2917179 Link8_10_Drone_0 = -1000
_C109: Charge_at_node_9_Drone_0 - 1015.98788604 Link9_0_Drone_0 = -1000
_C11: Link0_10_Drone_0 - Link10_0_Drone_0 + 0 Link10_10_Drone_0
 - Link10_1_Drone_0 - Link10_2_Drone_0 - Link10_3_Drone_0 - Link10_4_Drone_0
 - Link10_5_Drone_0 - Link10_6_Drone_0 - Link10_7_Drone_0 - Link10_8_Drone_0
 - Link10_9_Drone_0 + Link1_10_Drone_0 + Link2_10_Drone_0 + Link3_10_Drone_0
 + Link4_10_Drone_0 + Link5_10_Drone_0 + Link6_10_Drone_0 + Link7_10_Drone_0
 + Link8_10_Drone_0 + Link9_10_Drone_0 = 0
_C110: - Charge_at_node_1_Drone_0 + Charge_at_node_9_Drone_0
 - 1010.05574739 Link9_1_Drone_0 = -999.9
_C111: - Charge_at_node_2_Drone_0 + Charge_at_node_9_Drone_0
 - 1008.03268054 Link9_2_Drone_0 = -999.9
_C112: - Charge_at_node_3_Drone_0 + Charge_at_node_9_Drone_0
 - 1019.59198636 Link9_3_Drone_0 = -999.9
_C113: - Charge_at_node_4_Drone_0 + Charge_at_node_9_Drone_0
 - 1018.85760145 Link9_4_Drone_0 = -999.9
_C114: - Charge_at_node_5_Drone_0 + Charge_at_node_9_Drone_0
 - 1018.87787407 Link9_5_Drone_0 = -999.9
_C115: - Charge_at_node_6_Drone_0 + Charge_at_node_9_Drone_0
 - 1020.66472214 Link9_6_Drone_0 = -999.9
_C116: - Charge_at_node_7_Drone_0 + Charge_at_node_9_Drone_0
 - 1020.35874583 Link9_7_Drone_0 = -999.9
_C117: - Charge_at_node_8_Drone_0 + Charge_at_node_9_Drone_0
 - 1014.2917179 Link9_8_Drone_0 = -999.9
_C118: Charge_at_node_9_Drone_0 - 1000 Link9_9_Drone_0 = -1000
_C119: Charge_at_node_9_Drone_0 - 1000 Link9_10_Drone_0 = -1000
_C12: Link1_0_Drone_0 + Link1_10_Drone_0 + Link1_2_Drone_0 + Link1_3_Drone_0
 + Link1_4_Drone_0 + Link1_8_Drone_0 + Link1_9_Drone_0 = 1
_C120: Charge_at_node_10_Drone_0 - 1015.98788604 Link10_0_Drone_0 = -1000
_C121: Charge_at_node_10_Drone_0 - Charge_at_node_1_Drone_0
 - 1010.05574739 Link10_1_Drone_0 = -999.9
_C122: Charge_at_node_10_Drone_0 - Charge_at_node_2_Drone_0
 - 1008.03268054 Link10_2_Drone_0 = -999.9
_C123: Charge_at_node_10_Drone_0 - Charge_at_node_3_Drone_0
 - 1019.59198636 Link10_3_Drone_0 = -999.9
_C124: Charge_at_node_10_Drone_0 - Charge_at_node_4_Drone_0
 - 1018.85760145 Link10_4_Drone_0 = -999.9
_C125: Charge_at_node_10_Drone_0 - Charge_at_node_5_Drone_0
 - 1018.87787407 Link10_5_Drone_0 = -999.9
_C126: Charge_at_node_10_Drone_0 - Charge_at_node_6_Drone_0
 - 1020.66472214 Link10_6_Drone_0 = -999.9
_C127: Charge_at_node_10_Drone_0 - Charge_at_node_7_Drone_0
 - 1020.35874583 Link10_7_Drone_0 = -999.9
_C128: Charge_at_node_10_Drone_0 - Charge_at_node_8_Drone_0
 - 1014.2917179 Link10_8_Drone_0 = -999.9
_C129: Charge_at_node_10_Drone_0 - 1000 Link10_9_Drone_0 = -1000
_C13: Link2_0_Drone_0 + Link2_10_Drone_0 + Link2_1_Drone_0 + Link2_3_Drone_0
 + Link2_4_Drone_0 + Link2_5_Drone_0 + Link2_6_Drone_0 + Link2_7_Drone_0
 + Link2_8_Drone_0 + Link2_9_Drone_0 = 1
_C130: Charge_at_node_10_Drone_0 - 1000 Link10_10_Drone_0 = -1000
_C131: Time_at_node_0_Drone_0 = 0
_C132: 1005.4974329 Link0_1_Drone_0 + Time_at_node_0_Drone_0
 - Time_at_node_1_Drone_0 = 985
_C133: - 1.32 Charge_at_node_0_Drone_0 + 1005.4974329 Link0_1_Drone_0
 + Time_at_node_0_Drone_0 - Time_at_node_1_Drone_0 = 860
_C134: 1010.68172721 Link0_2_Drone_0 + Time_at_node_0_Drone_0
 - Time_at_node_2_Drone_0 = 985
_C135: - 1.32 Charge_at_node_0_Drone_0 + 1010.68172721 Link0_2_Drone_0
 + Time_at_node_0_Drone_0 - Time_at_node_2_Drone_0 = 860
_C136: 1016.39502149 Link0_8_Drone_0 + Time_at_node_0_Drone_0
 - Time_at_node_8_Drone_0 = 985
_C137: - 1.32 Charge_at_node_0_Drone_0 + 1016.39502149 Link0_8_Drone_0
 + Time_at_node_0_Drone_0 - Time_at_node_8_Drone_0 = 860
_C138: 1005.31495481 Link1_2_Drone_0 + Time_at_node_1_Drone_0
 - Time_at_node_2_Drone_0 = 985
_C139: - 1.32 Charge_at_node_1_Drone_0 + 1005.31495481 Link1_2_Drone_0
 + Time_at_node_1_Drone_0 - Time_at_node_2_Drone_0 = 860
_C14: Link3_10_Drone_0 + Link3_1_Drone_0 + Link3_2_Drone_0 + Link3_4_Drone_0
 + Link3_5_Drone_0 + Link3_6_Drone_0 + Link3_7_Drone_0 + Link3_8_Drone_0
 + Link3_9_Drone_0 = 1
_C140: 1016.01731854 Link1_3_Drone_0 + Time_at_node_1_Drone_0
 - Time_at_node_3_Drone_0 = 985
_C141: - 1.32 Charge_at_node_1_Drone_0 + 1016.01731854 Link1_3_Drone_0
 + Time_at_node_1_Drone_0 - Time_at_node_3_Drone_0 = 860
_C142: 1016.83507954 Link1_4_Drone_0 + Time_at_node_1_Drone_0
 - Time_at_node_4_Drone_0 = 985
_C143: - 1.32 Charge_at_node_1_Drone_0 + 1016.83507954 Link1_4_Drone_0
 + Time_at_node_1_Drone_0 - Time_at_node_4_Drone_0 = 860
_C144: 1014.40118314 Link1_8_Drone_0 + Time_at_node_1_Drone_0
 - Time_at_node_8_Drone_0 = 985
_C145: - 1.32 Charge_at_node_1_Drone_0 + 1014.40118314 Link1_8_Drone_0
 + Time_at_node_1_Drone_0 - Time_at_node_8_Drone_0 = 860
_C146: 1005.31495481 Link2_1_Drone_0 - Time_at_node_1_Drone_0
 + Time_at_node_2_Drone_0 = 985
_C147: - 1.32 Charge_at_node_2_Drone_0 + 1005.31495481 Link2_1_Drone_0
 - Time_at_node_1_Drone_0 + Time_at_node_2_Drone_0 = 860
_C148: 1010.90925992 Link2_3_Drone_0 + Time_at_node_2_Drone_0
 - Time_at_node_3_Drone_0 = 985
_C149: - 1.32 Charge_at_node_2_Drone_0 + 1010.90925992 Link2_3_Drone_0
 + Time_at_node_2_Drone_0 - Time_at_node_3_Drone_0 = 860
_C15: Link4_10_Drone_0 + Link4_1_Drone_0 + Link4_2_Drone_0 + Link4_3_Drone_0
 + Link4_5_Drone_0 + Link4_6_Drone_0 + Link4_7_Drone_0 + Link4_8_Drone_0
 + Link4_9_Drone_0 = 1
_C150: 1012.57360365 Link2_4_Drone_0 + Time_at_node_2_Drone_0
 - Time_at_node_4_Drone_0 = 985
_C151: - 1.32 Charge_at_node_2_Drone_0 + 1012.57360365 Link2_4_Drone_0
 + Time_at_node_2_Drone_0 - Time_at_node_4_Drone_0 = 860
_C152: 1013.75081537 Link2_5_Drone_0 + Time_at_node_2_Drone_0
 - Time_at_node_5_Drone_0 = 985
_C153: - 1.32 Charge_at_node_2_Drone_0 + 1013.75081537 Link2_5_Drone_0
 + Time_at_node_2_Drone_0 - Time_at_node_5_Drone_0 = 860
_C154: 1015.3284123 Link2_6_Drone_0 + Time_at_node_2_Drone_0
 - Time_at_node_6_Drone_0 = 985
_C155: - 1.32 Charge_at_node_2_Drone_0 + 1015.3284123 Link2_6_Drone_0
 + Time_at_node_2_Drone_0 - Time_at_node_6_Drone_0 = 860
_C156: 1016.08998043 Link2_7_Drone_0 + Time_at_node_2_Drone_0
 - Time_at_node_7_Drone_0 = 985
_C157: - 1.32 Charge_at_node_2_Drone_0 + 1016.08998043 Link2_7_Drone_0
 + Time_at_node_2_Drone_0 - Time_at_node_7_Drone_0 = 860
_C158: 1012.68768167 Link2_8_Drone_0 + Time_at_node_2_Drone_0
 - Time_at_node_8_Drone_0 = 985
_C159: - 1.32 Charge_at_node_2_Drone_0 + 1012.68768167 Link2_8_Drone_0
 + Time_at_node_2_Drone_0 - Time_at_node_8_Drone_0 = 860
_C16: Link5_10_Drone_0 + Link5_2_Drone_0 + Link5_3_Drone_0 + Link5_4_Drone_0
 + Link5_6_Drone_0 + Link5_7_Drone_0 + Link5_8_Drone_0 + Link5_9_Drone_0 = 1
_C160: 1016.01731854 Link3_1_Drone_0 - Time_at_node_1_Drone_0
 + Time_at_node_3_Drone_0 = 985
_C161: - 1.32 Charge_at_node_3_Drone_0 + 1016.01731854 Link3_1_Drone_0
 - Time_at_node_1_Drone_0 + Time_at_node_3_Drone_0 = 860
_C162: 1010.90925992 Link3_2_Drone_0 - Time_at_node_2_Drone_0
 + Time_at_node_3_Drone_0 = 985
_C163: - 1.32 Charge_at_node_3_Drone_0 + 1010.90925992 Link3_2_Drone_0
 - Time_at_node_2_Drone_0 + Time_at_node_3_Drone_0 = 860
_C164: 1005.12656512 Link3_4_Drone_0 + Time_at_node_3_Drone_0
 - Time_at_node_4_Drone_0 = 985
_C165: - 1.32 Charge_at_node_3_Drone_0 + 1005.12656512 Link3_4_Drone_0
 + Time_at_node_3_Drone_0 - Time_at_node_4_Drone_0 = 860
_C166: 1008.3080614 Link3_5_Drone_0 + Time_at_node_3_Drone_0
 - Time_at_node_5_Drone_0 = 985
_C167: - 1.32 Charge_at_node_3_Drone_0 + 1008.3080614 Link3_5_Drone_0
 + Time_at_node_3_Drone_0 - Time_at_node_5_Drone_0 = 860
_C168: 1010.43239374 Link3_6_Drone_0 + Time_at_node_3_Drone_0
 - Time_at_node_6_Drone_0 = 985
_C169: - 1.32 Charge_at_node_3_Drone_0 + 1010.43239374 Link3_6_Drone_0
 + Time_at_node_3_Drone_0 - Time_at_node_6_Drone_0 = 860
_C17: Link6_10_Drone_0 + Link6_2_Drone_0 + Link6_3_Drone_0 + Link6_4_Drone_0
 + Link6_5_Drone_0 + Link6_7_Drone_0 + Link6_8_Drone_0 + Link6_9_Drone_0 = 1
_C170: 1013.65181902 Link3_7_Drone_0 + Time_at_node_3_Drone_0
 - Time_at_node_7_Drone_0 = 985
_C171: - 1.32 Charge_at_node_3_Drone_0 + 1013.65181902 Link3_7_Drone_0
 + Time_at_node_3_Drone_0 - Time_at_node_7_Drone_0 = 860
_C172: 1012.37543906 Link3_8_Drone_0 + Time_at_node_3_Drone_0
 - Time_at_node_8_Drone_0 = 985
_C173: - 1.32 Charge_at_node_3_Drone_0 + 1012.37543906 Link3_8_Drone_0
 + Time_at_node_3_Drone_0 - Time_at_node_8_Drone_0 = 860
_C174: 1016.83507954 Link4_1_Drone_0 - Time_at_node_1_Drone_0
 + Time_at_node_4_Drone_0 = 985
_C175: - 1.32 Charge_at_node_4_Drone_0 + 1016.83507954 Link4_1_Drone_0
 - Time_at_node_1_Drone_0 + Time_at_node_4_Drone_0 = 860
_C176: 1012.57360365 Link4_2_Drone_0 - Time_at_node_2_Drone_0
 + Time_at_node_4_Drone_0 = 985
_C177: - 1.32 Charge_at_node_4_Drone_0 + 1012.57360365 Link4_2_Drone_0
 - Time_at_node_2_Drone_0 + Time_at_node_4_Drone_0 = 860
_C178: 1005.12656512 Link4_3_Drone_0 - Time_at_node_3_Drone_0
 + Time_at_node_4_Drone_0 = 985
_C179: - 1.32 Charge_at_node_4_Drone_0 + 1005.12656512 Link4_3_Drone_0
 - Time_at_node_3_Drone_0 + Time_at_node_4_Drone_0 = 860
_C18: Link7_10_Drone_0 + Link7_2_Drone_0 + Link7_3_Drone_0 + Link7_4_Drone_0
 + Link7_5_Drone_0 + Link7_6_Drone_0 + Link7_8_Drone_0 + Link7_9_Drone_0 = 1
_C180: 1003.25985723 Link4_5_Drone_0 + Time_at_node_4_Drone_0
 - Time_at_node_5_Drone_0 = 985
_C181: - 1.32 Charge_at_node_4_Drone_0 + 1003.25985723 Link4_5_Drone_0
 + Time_at_node_4_Drone_0 - Time_at_node_5_Drone_0 = 860
_C182: 1005.34078797 Link4_6_Drone_0 + Time_at_node_4_Drone_0
 - Time_at_node_6_Drone_0 = 985
_C183: - 1.32 Charge_at_node_4_Drone_0 + 1005.34078797 Link4_6_Drone_0
 + Time_at_node_4_Drone_0 - Time_at_node_6_Drone_0 = 860
_C184: 1008.82072428 Link4_7_Drone_0 + Time_at_node_4_Drone_0
 - Time_at_node_7_Drone_0 = 985
_C185: - 1.32 Charge_at_node_4_Drone_0 + 1008.82072428 Link4_7_Drone_0
 + Time_at_node_4_Drone_0 - Time_at_node_7_Drone_0 = 860
_C186: 1008.39898914 Link4_8_Drone_0 + Time_at_node_4_Drone_0
 - Time_at_node_8_Drone_0 = 985
_C187: - 1.32 Charge_at_node_4_Drone_0 + 1008.39898914 Link4_8_Drone_0
 + Time_at_node_4_Drone_0 - Time_at_node_8_Drone_0 = 860
_C188: 1013.75081537 Link5_2_Drone_0 - Time_at_node_2_Drone_0
 + Time_at_node_5_Drone_0 = 985
_C189: - 1.32 Charge_at_node_5_Drone_0 + 1013.75081537 Link5_2_Drone_0
 - Time_at_node_2_Drone_0 + Time_at_node_5_Drone_0 = 860
_C19: Link8_0_Drone_0 + Link8_10_Drone_0 + Link8_1_Drone_0 + Link8_2_Drone_0
 + Link8_3_Drone_0 + Link8_4_Drone_0 + Link8_5_Drone_0 + Link8_6_Drone_0
 + Link8_7_Drone_0 + Link8_9_Drone_0 = 1
_C190: 1008.3080614 Link5_3_Drone_0 - Time_at_node_3_Drone_0
 + Time_at_node_5_Drone_0 = 985
_C191: - 1.32 Charge_at_node_5_Drone_0 + 1008.3080614 Link5_3_Drone_0
 - Time_at_node_3_Drone_0 + Time_at_node_5_Drone_0 = 860
_C192: 1003.25985723 Link5_4_Drone_0 - Time_at_node_4_Drone_0
 + Time_at_node_5_Drone_0 = 985
_C193: - 1.32 Charge_at_node_5_Drone_0 + 1003.25985723 Link5_4_Drone_0
 - Time_at_node_4_Drone_0 + Time_at_node_5_Drone_0 = 860
_C194: 1002.13752362 Link5_6_Drone_0 + Time_at_node_5_Drone_0
 - Time_at_node_6_Drone_0 = 985
_C195: - 1.32 Charge_at_node_5_Drone_0 + 1002.13752362 Link5_6_Drone_0
 + Time_at_node_5_Drone_0 - Time_at_node_6_Drone_0 = 860
_C196: 1005.61651543 Link5_7_Drone_0 + Time_at_node_5_Drone_0
 - Time_at_node_7_Drone_0 = 985
_C197: - 1.32 Charge_at_node_5_Drone_0 + 1005.61651543 Link5_7_Drone_0
 + Time_at_node_5_Drone_0 - Time_at_node_7_Drone_0 = 860
_C198: 1005.93967157 Link5_8_Drone_0 + Time_at_node_5_Drone_0
 - Time_at_node_8_Drone_0 = 985
_C199: - 1.32 Charge_at_node_5_Drone_0 + 1005.93967157 Link5_8_Drone_0
 + Time_at_node_5_Drone_0 - Time_at_node_8_Drone_0 = 860
_C2: Link0_1_Drone_0 + Link10_1_Drone_0 - Link1_0_Drone_0 - Link1_10_Drone_0
 - Link1_2_Drone_0 - Link1_3_Drone_0 - Link1_4_Drone_0 - Link1_8_Drone_0
 - Link1_9_Drone_0 + Link2_1_Drone_0 + Link3_1_Drone_0 + Link4_1_Drone_0
 + Link8_1_Drone_0 + Link9_1_Drone_0 = 0
_C20: Link0_10_Drone_0 + Link0_1_Drone_0 + Link0_2_Drone_0 + Link0_8_Drone_0
 + Link0_9_Drone_0 = 1
_C200: 1015.3284123 Link6_2_Drone_0 - Time_at_node_2_Drone_0
 + Time_at_node_6_Drone_0 = 985
_C201: - 1.32 Charge_at_node_6_Drone_0 + 1015.3284123 Link6_2_Drone_0
 - Time_at_node_2_Drone_0 + Time_at_node_6_Drone_0 = 860
_C202: 1010.43239374 Link6_3_Drone_0 - Time_at_node_3_Drone_0
 + Time_at_node_6_Drone_0 = 985
_C203: - 1.32 Charge_at_node_6_Drone_0 + 1010.43239374 Link6_3_Drone_0
 - Time_at_node_3_Drone_0 + Time_at_node_6_Drone_0 = 860
_C204: 1005.34078797 Link6_4_Drone_0 - Time_at_node_4_Drone_0
 + Time_at_node_6_Drone_0 = 985
_C205: - 1.32 Charge_at_node_6_Drone_0 + 1005.34078797 Link6_4_Drone_0
 - Time_at_node_4_Drone_0 + Time_at_node_6_Drone_0 = 860
_C206: 1002.13752362 Link6_5_Drone_0 - Time_at_node_5_Drone_0
 + Time_at_node_6_Drone_0 = 985
_C207: - 1.32 Charge_at_node_6_Drone_0 + 1002.13752362 Link6_5_Drone_0
 - Time_at_node_5_Drone_0 + Time_at_node_6_Drone_0 = 860
_C208: 1003.92218669 Link6_7_Drone_0 + Time_at_node_6_Drone_0
 - Time_at_node_7_Drone_0 = 985
_C209: - 1.32 Charge_at_node_6_Drone_0 + 1003.92218669 Link6_7_Drone_0
 + Time_at_node_6_Drone_0 - Time_at_node_7_Drone_0 = 860
_C21: Charge_at_node_0_Drone_0 = 100
_C210: 1005.48824031 Link6_8_Drone_0 + Time_at_node_6_Drone_0
 - Time_at_node_8_Drone_0 = 985
_C211: - 1.32 Charge_at_node_6_Drone_0 + 1005.48824031 Link6_8_Drone_0
 + Time_at_node_6_Drone_0 - Time_at_node_8_Drone_0 = 860
_C212: 1016.08998043 Link7_2_Drone_0 - Time_at_node_2_Drone_0
 + Time_at_node_7_Drone_0 = 985
_C213: - 1.32 Charge_at_node_7_Drone_0 + 1016.08998043 Link7_2_Drone_0
 - Time_at_node_2_Drone_0 + Time_at_node_7_Drone_0 = 860
_C214: 1013.65181902 Link7_3_Drone_0 - Time_at_node_3_Drone_0
 + Time_at_node_7_Drone_0 = 985
_C215: - 1.32 Charge_at_node_7_Drone_0 + 1013.65181902 Link7_3_Drone_0
 - Time_at_node_3_Drone_0 + Time_at_node_7_Drone_0 = 860
_C216: 1008.82072428 Link7_4_Drone_0 - Time_at_node_4_Drone_0
 + Time_at_node_7_Drone_0 = 985
_C217: - 1.32 Charge_at_node_7_Drone_0 + 1008.82072428 Link7_4_Drone_0
 - Time_at_node_4_Drone_0 + Time_at_node_7_Drone_0 = 860
_C218: 1005.61651543 Link7_5_Drone_0 - Time_at_node_5_Drone_0
 + Time_at_node_7_Drone_0 = 985
_C219: - 1.32 Charge_at_node_7_Drone_0 + 1005.61651543 Link7_5_Drone_0
 - Time_at_node_5_Drone_0 + Time_at_node_7_Drone_0 = 860
_C22: Charge_at_node_9_Drone_0 = 100
_C220: 1003.92218669 Link7_6_Drone_0 - Time_at_node_6_Drone_0
 + Time_at_node_7_Drone_0 = 985
_C221: - 1.32 Charge_at_node_7_Drone_0 + 1003.92218669 Link7_6_Drone_0
 - Time_at_node_6_Drone_0 + Time_at_node_7_Drone_0 = 860
_C222: 1003.69609505 Link7_8_Drone_0 + Time_at_node_7_Drone_0
 - Time_at_node_8_Drone_0 = 985
_C223: - 1.32 Charge_at_node_7_Drone_0 + 1003.69609505 Link7_8_Drone_0
 + Time_at_node_7_Drone_0 - Time_at_node_8_Drone_0 = 860
_C224: 1014.40118314 Link8_1_Drone_0 - Time_at_node_1_Drone_0
 + Time_at_node_8_Drone_0 = 985
_C225: - 1.32 Charge_at_node_8_Drone_0 + 1014.40118314 Link8_1_Drone_0
 - Time_at_node_1_Drone_0 + Time_at_node_8_Drone_0 = 860
_C226: 1012.68768167 Link8_2_Drone_0 - Time_at_node_2_Drone_0
 + Time_at_node_8_Drone_0 = 985
_C227: - 1.32 Charge_at_node_8_Drone_0 + 1012.68768167 Link8_2_Drone_0
 - Time_at_node_2_Drone_0 + Time_at_node_8_Drone_0 = 860
_C228: 1012.37543906 Link8_3_Drone_0 - Time_at_node_3_Drone_0
 + Time_at_node_8_Drone_0 = 985
_C229: - 1.32 Charge_at_node_8_Drone_0 + 1012.37543906 Link8_3_Drone_0
 - Time_at_node_3_Drone_0 + Time_at_node_8_Drone_0 = 860
_C23: Charge_at_node_10_Drone_0 = 100
_C230: 1008.39898914 Link8_4_Drone_0 - Time_at_node_4_Drone_0
 + Time_at_node_8_Drone_0 = 985
_C231: - 1.32 Charge_at_node_8_Drone_0 + 1008.39898914 Link8_4_Drone_0
 - Time_at_node_4_Drone_0 + Time_at_node_8_Drone_0 = 860
_C232: 1005.93967157 Link8_5_Drone_0 - Time_at_node_5_Drone_0
 + Time_at_node_8_Drone_0 = 985
_C233: - 1.32 Charge_at_node_8_Drone_0 + 1005.93967157 Link8_5_Drone_0
 - Time_at_node_5_Drone_0 + Time_at_node_8_Drone_0 = 860
_C234: 1005.48824031 Link8_6_Drone_0 - Time_at_node_6_Drone_0
 + Time_at_node_8_Drone_0 = 985
_C235: - 1.32 Charge_at_node_8_Drone_0 + 1005.48824031 Link8_6_Drone_0
 - Time_at_node_6_Drone_0 + Time_at_node_8_Drone_0 = 860
_C236: 1003.69609505 Link8_7_Drone_0 - Time_at_node_7_Drone_0
 + Time_at_node_8_Drone_0 = 985
_C237: - 1.32 Charge_at_node_8_Drone_0 + 1003.69609505 Link8_7_Drone_0
 - Time_at_node_7_Drone_0 + Time_at_node_8_Drone_0 = 860
_C238: 1006.02641644 Link9_1_Drone_0 - Time_at_node_1_Drone_0
 + Time_at_node_9_Drone_0 = 985
_C239: - 1.32 Charge_at_node_9_Drone_0 + 1006.02641644 Link9_1_Drone_0
 - Time_at_node_1_Drone_0 + Time_at_node_9_Drone_0 = 860
_C24: Charge_at_node_0_Drone_0 = 5
_C240: 1004.81399106 Link9_2_Drone_0 - Time_at_node_2_Drone_0
 + Time_at_node_9_Drone_0 = 985
_C241: - 1.32 Charge_at_node_9_Drone_0 + 1004.81399106 Link9_2_Drone_0
 - Time_at_node_2_Drone_0 + Time_at_node_9_Drone_0 = 860
_C242: 1011.74149113 Link9_3_Drone_0 - Time_at_node_3_Drone_0
 + Time_at_node_9_Drone_0 = 985
_C243: - 1.32 Charge_at_node_9_Drone_0 + 1011.74149113 Link9_3_Drone_0
 - Time_at_node_3_Drone_0 + Time_at_node_9_Drone_0 = 860
_C244: 1011.30137374 Link9_4_Drone_0 - Time_at_node_4_Drone_0
 + Time_at_node_9_Drone_0 = 985
_C245: - 1.32 Charge_at_node_9_Drone_0 + 1011.30137374 Link9_4_Drone_0
 - Time_at_node_4_Drone_0 + Time_at_node_9_Drone_0 = 860
_C246: 1011.31352313 Link9_5_Drone_0 - Time_at_node_5_Drone_0
 + Time_at_node_9_Drone_0 = 985
_C247: - 1.32 Charge_at_node_9_Drone_0 + 1011.31352313 Link9_5_Drone_0
 - Time_at_node_5_Drone_0 + Time_at_node_9_Drone_0 = 860
_C248: 1012.38438243 Link9_6_Drone_0 - Time_at_node_6_Drone_0
 + Time_at_node_9_Drone_0 = 985
_C249: - 1.32 Charge_at_node_9_Drone_0 + 1012.38438243 Link9_6_Drone_0
 - Time_at_node_6_Drone_0 + Time_at_node_9_Drone_0 = 860
_C25: Charge_at_node_1_Drone_0 = 5
_C250: 1012.20101061 Link9_7_Drone_0 - Time_at_node_7_Drone_0
 + Time_at_node_9_Drone_0 = 985
_C251: - 1.32 Charge_at_node_9_Drone_0 + 1012.20101061 Link9_7_Drone_0
 - Time_at_node_7_Drone_0 + Time_at_node_9_Drone_0 = 860
_C252: 1008.56503653 Link9_8_Drone_0 - Time_at_node_8_Drone_0
 + Time_at_node_9_Drone_0 = 985
_C253: - 1.32 Charge_at_node_9_Drone_0 + 1008.56503653 Link9_8_Drone_0
 - Time_at_node_8_Drone_0 + Time_at_node_9_Drone_0 = 860
_C254: 1006.02641644 Link10_1_Drone_0 + Time_at_node_10_Drone_0
 - Time_at_node_1_Drone_0 = 985
_C255: - 1.32 Charge_at_node_10_Drone_0 + 1006.02641644 Link10_1_Drone_0
 + Time_at_node_10_Drone_0 - Time_at_node_1_Drone_0 = 860
_C256: 1004.81399106 Link10_2_Drone_0 + Time_at_node_10_Drone_0
 - Time_at_node_2_Drone_0 = 985
_C257: - 1.32 Charge_at_node_10_Drone_0 + 1004.81399106 Link10_2_Drone_0
 + Time_at_node_10_Drone_0 - Time_at_node_2_Drone_0 = 860
_C258: 1011.74149113 Link10_3_Drone_0 + Time_at_node_10_Drone_0
 - Time_at_node_3_Drone_0 = 985
_C259: - 1.32 Charge_at_node_10_Drone_0 + 1011.74149113 Link10_3_Drone_0
 + Time_at_node_10_Drone_0 - Time_at_node_3_Drone_0 = 860
_C26: Charge_at_node_2_Drone_0 = 5
_C260: 1011.30137374 Link10_4_Drone_0 + Time_at_node_10_Drone_0
 - Time_at_node_4_Drone_0 = 985
_C261: - 1.32 Charge_at_node_10_Drone_0 + 1011.30137374 Link10_4_Drone_0
 + Time_at_node_10_Drone_0 - Time_at_node_4_Drone_0 = 860
_C262: 1011.31352313 Link10_5_Drone_0 + Time_at_node_10_Drone_0
 - Time_at_node_5_Drone_0 = 985
_C263: - 1.32 Charge_at_node_10_Drone_0 + 1011.31352313 Link10_5_Drone_0
 + Time_at_node_10_Drone_0 - Time_at_node_5_Drone_0 = 860
_C264: 1012.38438243 Link10_6_Drone_0 + Time_at_node_10_Drone_0
 - Time_at_node_6_Drone_0 = 985
_C265: - 1.32 Charge_at_node_10_Drone_0 + 1012.38438243 Link10_6_Drone_0
 + Time_at_node_10_Drone_0 - Time_at_node_6_Drone_0 = 860
_C266: 1012.20101061 Link10_7_Drone_0 + Time_at_node_10_Drone_0
 - Time_at_node_7_Drone_0 = 985
_C267: - 1.32 Charge_at_node_10_Drone_0 + 1012.20101061 Link10_7_Drone_0
 + Time_at_node_10_Drone_0 - Time_at_node_7_Drone_0 = 860
_C268: 1008.56503653 Link10_8_Drone_0 + Time_at_node_10_Drone_0
 - Time_at_node_8_Drone_0 = 985
_C269: - 1.32 Charge_at_node_10_Drone_0 + 1008.56503653 Link10_8_Drone_0
 + Time_at_node_10_Drone_0 - Time_at_node_8_Drone_0 = 860
_C27: Charge_at_node_3_Drone_0 = 5
_C28: Charge_at_node_4_Drone_0 = 5
_C29: Charge_at_node_5_Drone_0 = 5
_C3: Link0_2_Drone_0 + Link10_2_Drone_0 + Link1_2_Drone_0 - Link2_0_Drone_0
 - Link2_10_Drone_0 - Link2_1_Drone_0 - Link2_3_Drone_0 - Link2_4_Drone_0
 - Link2_5_Drone_0 - Link2_6_Drone_0 - Link2_7_Drone_0 - Link2_8_Drone_0
 - Link2_9_Drone_0 + Link3_2_Drone_0 + Link4_2_Drone_0 + Link5_2_Drone_0
 + Link6_2_Drone_0 + Link7_2_Drone_0 + Link8_2_Drone_0 + Link9_2_Drone_0 = 0
_C30: Charge_at_node_6_Drone_0 = 5
_C31: Charge_at_node_7_Drone_0 = 5
_C32: Charge_at_node_8_Drone_0 = 5
_C33: Charge_at_node_9_Drone_0 = 5
_C34: Charge_at_node_10_Drone_0 = 5
_C35: Charge_at_node_0_Drone_0 - Charge_at_node_1_Drone_0
 - 1009.1730794 Link0_1_Drone_0 = -999.9
_C36: Charge_at_node_0_Drone_0 - Charge_at_node_2_Drone_0
 - 1017.82365217 Link0_2_Drone_0 = -999.9
_C37: Charge_at_node_0_Drone_0 - Charge_at_node_8_Drone_0
 - 1027.35692034 Link0_8_Drone_0 = -999.9
_C38: Charge_at_node_0_Drone_0 - 1015.98788604 Link0_9_Drone_0 = -1000
_C39: Charge_at_node_0_Drone_0 - 1015.98788604 Link0_10_Drone_0 = -1000
_C4: Link10_3_Drone_0 + Link1_3_Drone_0 + Link2_3_Drone_0 - Link3_10_Drone_0
 - Link3_1_Drone_0 - Link3_2_Drone_0 - Link3_4_Drone_0 - Link3_5_Drone_0
 - Link3_6_Drone_0 - Link3_7_Drone_0 - Link3_8_Drone_0 - Link3_9_Drone_0
 + Link4_3_Drone_0 + Link5_3_Drone_0 + Link6_3_Drone_0 + Link7_3_Drone_0
 + Link8_3_Drone_0 + Link9_3_Drone_0 = 0
_C40: Charge_at_node_1_Drone_0 - 1009.1730794 Link1_0_Drone_0 = -1000
_C41: Charge_at_node_1_Drone_0 - Charge_at_node_2_Drone_0
 - 1008.86859438 Link1_2_Drone_0 = -999.9
_C42: Charge_at_node_1_Drone_0 - Charge_at_node_3_Drone_0
 - 1026.72668087 Link1_3_Drone_0 = -999.9
_C43: Charge_at_node_1_Drone_0 - Charge_at_node_4_Drone_0
 - 1028.09120623 Link1_4_Drone_0 = -999.9
_C44: Charge_at_node_1_Drone_0 - Charge_at_node_8_Drone_0
 - 1024.02997887 Link1_8_Drone_0 = -999.9
_C45: Charge_at_node_1_Drone_0 - 1010.05574739 Link1_9_Drone_0 = -1000
_C46: Charge_at_node_1_Drone_0 - 1010.05574739 Link1_10_Drone_0 = -1000
_C47: Charge_at_node_2_Drone_0 - 1017.82365217 Link2_0_Drone_0 = -1000
_C48: - Charge_at_node_1_Drone_0 + Charge_at_node_2_Drone_0
 - 1008.86859438 Link2_1_Drone_0 = -999.9
_C49: Charge_at_node_2_Drone_0 - Charge_at_node_3_Drone_0
 - 1018.20331586 Link2_3_Drone_0 = -999.9
_C5: Link10_4_Drone_0 + Link1_4_Drone_0 + Link2_4_Drone_0 + Link3_4_Drone_0
 - Link4_10_Drone_0 - Link4_1_Drone_0 - Link4_2_Drone_0 - Link4_3_Drone_0
 - Link4_5_Drone_0 - Link4_6_Drone_0 - Link4_7_Drone_0 - Link4_8_Drone_0
 - Link4_9_Drone_0 + Link5_4_Drone_0 + Link6_4_Drone_0 + Link7_4_Drone_0
 + Link8_4_Drone_0 + Link9_4_Drone_0 = 0
_C50: Charge_at_node_2_Drone_0 - Charge_at_node_4_Drone_0
 - 1020.98045883 Link2_4_Drone_0 = -999.9
_C51: Charge_at_node_2_Drone_0 - Charge_at_node_5_Drone_0
 - 1022.94476777 Link2_5_Drone_0 = -999.9
_C52: Charge_at_node_2_Drone_0 - Charge_at_node_6_Drone_0
 - 1025.57716405 Link2_6_Drone_0 = -999.9
_C53: Charge_at_node_2_Drone_0 - Charge_at_node_7_Drone_0
 - 1026.84792534 Link2_7_Drone_0 = -999.9
_C54: Charge_at_node_2_Drone_0 - Charge_at_node_8_Drone_0
 - 1021.17081073 Link2_8_Drone_0 = -999.9
_C55: Charge_at_node_2_Drone_0 - 1008.03268054 Link2_9_Drone_0 = -1000
_C56: Charge_at_node_2_Drone_0 - 1008.03268054 Link2_10_Drone_0 = -1000
_C57: - Charge_at_node_1_Drone_0 + Charge_at_node_3_Drone_0
 - 1026.72668087 Link3_1_Drone_0 = -999.9
_C58: - Charge_at_node_2_Drone_0 + Charge_at_node_3_Drone_0
 - 1018.20331586 Link3_2_Drone_0 = -999.9
_C59: Charge_at_node_3_Drone_0 - Charge_at_node_4_Drone_0
 - 1008.55424518 Link3_4_Drone_0 = -999.9
_C6: Link10_5_Drone_0 + Link2_5_Drone_0 + Link3_5_Drone_0 + Link4_5_Drone_0
 - Link5_10_Drone_0 - Link5_2_Drone_0 - Link5_3_Drone_0 - Link5_4_Drone_0
 - Link5_6_Drone_0 - Link5_7_Drone_0 - Link5_8_Drone_0 - Link5_9_Drone_0
 + Link6_5_Drone_0 + Link7_5_Drone_0 + Link8_5_Drone_0 + Link9_5_Drone_0 = 0
_C60: Charge_at_node_3_Drone_0 - Charge_at_node_5_Drone_0
 - 1013.86292626 Link3_5_Drone_0 = -999.9
_C61: Charge_at_node_3_Drone_0 - Charge_at_node_6_Drone_0
 - 1017.40761149 Link3_6_Drone_0 = -999.9
_C62: Charge_at_node_3_Drone_0 - Charge_at_node_7_Drone_0
 - 1022.77958132 Link3_7_Drone_0 = -999.9
_C63: Charge_at_node_3_Drone_0 - Charge_at_node_8_Drone_0
 - 1020.64979913 Link3_8_Drone_0 = -999.9
_C64: Charge_at_node_3_Drone_0 - 1019.59198636 Link3_9_Drone_0 = -1000
_C65: Charge_at_node_3_Drone_0 - 1019.59198636 Link3_10_Drone_0 = -1000
_C66: - Charge_at_node_1_Drone_0 + Charge_at_node_4_Drone_0
 - 1028.09120623 Link4_1_Drone_0 = -999.9
_C67: - Charge_at_node_2_Drone_0 + Charge_at_node_4_Drone_0
 - 1020.98045883 Link4_2_Drone_0 = -999.9
_C68: - Charge_at_node_3_Drone_0 + Charge_at_node_4_Drone_0
 - 1008.55424518 Link4_3_Drone_0 = -999.9
_C69: Charge_at_node_4_Drone_0 - Charge_at_node_5_Drone_0
 - 1005.43943505 Link4_5_Drone_0 = -999.9
_C7: Link10_6_Drone_0 + Link2_6_Drone_0 + Link3_6_Drone_0 + Link4_6_Drone_0
 + Link5_6_Drone_0 - Link6_10_Drone_0 - Link6_2_Drone_0 - Link6_3_Drone_0
 - Link6_4_Drone_0 - Link6_5_Drone_0 - Link6_7_Drone_0 - Link6_8_Drone_0
 - Link6_9_Drone_0 + Link7_6_Drone_0 + Link8_6_Drone_0 + Link9_6_Drone_0 = 0
_C70: Charge_at_node_4_Drone_0 - Charge_at_node_6_Drone_0
 - 1008.91169988 Link4_6_Drone_0 = -999.9
_C71: Charge_at_node_4_Drone_0 - Charge_at_node_7_Drone_0
 - 1014.7183614 Link4_7_Drone_0 = -999.9
_C72: Charge_at_node_4_Drone_0 - Charge_at_node_8_Drone_0
 - 1014.01464932 Link4_8_Drone_0 = -999.9
_C73: Charge_at_node_4_Drone_0 - 1018.85760145 Link4_9_Drone_0 = -1000
_C74: Charge_at_node_4_Drone_0 - 1018.85760145 Link4_10_Drone_0 = -1000
_C75: - Charge_at_node_2_Drone_0 + Charge_at_node_5_Drone_0
 - 1022.94476777 Link5_2_Drone_0 = -999.9
_C76: - Charge_at_node_3_Drone_0 + Charge_at_node_5_Drone_0
 - 1013.86292626 Link5_3_Drone_0 = -999.9
_C77: - Charge_at_node_4_Drone_0 + Charge_at_node_5_Drone_0
 - 1005.43943505 Link5_4_Drone_0 = -999.9
_C78: Charge_at_node_5_Drone_0 - Charge_at_node_6_Drone_0
 - 1003.56669636 Link5_6_Drone_0 = -999.9
_C79: Charge_at_node_5_Drone_0 - Charge_at_node_7_Drone_0
 - 1009.37178187 Link5_7_Drone_0 = -999.9
_C8: Link10_7_Drone_0 + Link2_7_Drone_0 + Link3_7_Drone_0 + Link4_7_Drone_0
 + Link5_7_Drone_0 + Link6_7_Drone_0 - Link7_10_Drone_0 - Link7_2_Drone_0
 - Link7_3_Drone_0 - Link7_4_Drone_0 - Link7_5_Drone_0 - Link7_6_Drone_0
 - Link7_8_Drone_0 - Link7_9_Drone_0 + Link8_7_Drone_0 + Link9_7_Drone_0 = 0
_C80: Charge_at_node_5_Drone_0 - Charge_at_node_8_Drone_0
 - 1009.91100391 Link5_8_Drone_0 = -999.9
_C81: Charge_at_node_5_Drone_0 - 1018.87787407 Link5_9_Drone_0 = -1000
_C82: Charge_at_node_5_Drone_0 - 1018.87787407 Link5_10_Drone_0 = -1000
_C83: - Charge_at_node_2_Drone_0 + Charge_at_node_6_Drone_0
 - 1025.57716405 Link6_2_Drone_0 = -999.9
_C84: - Charge_at_node_3_Drone_0 + Charge_at_node_6_Drone_0
 - 1017.40761149 Link6_3_Drone_0 = -999.9
_C85: - Charge_at_node_4_Drone_0 + Charge_at_node_6_Drone_0
 - 1008.91169988 Link6_4_Drone_0 = -999.9
_C86: - Charge_at_node_5_Drone_0 + Charge_at_node_6_Drone_0
 - 1003.56669636 Link6_5_Drone_0 = -999.9
_C87: Charge_at_node_6_Drone_0 - Charge_at_node_7_Drone_0
 - 1006.54460556 Link6_7_Drone_0 = -999.9
_C88: Charge_at_node_6_Drone_0 - Charge_at_node_8_Drone_0
 - 1009.15774054 Link6_8_Drone_0 = -999.9
_C89: Charge_at_node_6_Drone_0 - 1020.66472214 Link6_9_Drone_0 = -1000
_C9: Link0_8_Drone_0 + Link10_8_Drone_0 + Link1_8_Drone_0 + Link2_8_Drone_0
 + Link3_8_Drone_0 + Link4_8_Drone_0 + Link5_8_Drone_0 + Link6_8_Drone_0
 + Link7_8_Drone_0 - Link8_0_Drone_0 - Link8_10_Drone_0 - Link8_1_Drone_0
 - Link8_2_Drone_0 - Link8_3_Drone_0 - Link8_4_Drone_0 - Link8_5_Drone_0
 - Link8_6_Drone_0 - Link8_7_Drone_0 - Link8_9_Drone_0 + Link9_8_Drone_0 = 0
_C90: Charge_at_node_6_Drone_0 - 1020.66472214 Link6_10_Drone_0 = -1000
_C91: - Charge_at_node_2_Drone_0 + Charge_at_node_7_Drone_0
 - 1026.84792534 Link7_2_Drone_0 = -999.9
_C92: - Charge_at_node_3_Drone_0 + Charge_at_node_7_Drone_0
 - 1022.77958132 Link7_3_Drone_0 = -999.9
_C93: - Charge_at_node_4_Drone_0 + Charge_at_node_7_Drone_0
 - 1014.7183614 Link7_4_Drone_0 = -999.9
_C94: - Charge_at_node_5_Drone_0 + Charge_at_node_7_Drone_0
 - 1009.37178187 Link7_5_Drone_0 = -999.9
_C95: - Charge_at_node_6_Drone_0 + Charge_at_node_7_Drone_0
 - 1006.54460556 Link7_6_Drone_0 = -999.9
_C96: Charge_at_node_7_Drone_0 - Charge_at_node_8_Drone_0
 - 1006.16734647 Link7_8_Drone_0 = -999.9
_C97: Charge_at_node_7_Drone_0 - 1020.35874583 Link7_9_Drone_0 = -1000
_C98: Charge_at_node_7_Drone_0 - 1020.35874583 Link7_10_Drone_0 = -1000
_C99: Charge_at_node_8_Drone_0 - 1027.35692034 Link8_0_Drone_0 = -1000
Bounds
-inf <= Charge_at_node_0_Drone_0 <= 100
-inf <= Charge_at_node_10_Drone_0 <= 100
-inf <= Charge_at_node_1_Drone_0 <= 100
-inf <= Charge_at_node_2_Drone_0 <= 100
-inf <= Charge_at_node_3_Drone_0 <= 100
-inf <= Charge_at_node_4_Drone_0 <= 100
-inf <= Charge_at_node_5_Drone_0 <= 100
-inf <= Charge_at_node_6_Drone_0 <= 100
-inf <= Charge_at_node_7_Drone_0 <= 100
-inf <= Charge_at_node_8_Drone_0 <= 100
-inf <= Charge_at_node_9_Drone_0 <= 100
Link0_10_Drone_0 <= 2
Link0_1_Drone_0 <= 2
Link0_2_Drone_0 <= 2
Link0_8_Drone_0 <= 2
Link0_9_Drone_0 <= 2
Link10_0_Drone_0 <= 2
Link10_10_Drone_0 <= 2
Link10_1_Drone_0 <= 2
Link10_2_Drone_0 <= 2
Link10_3_Drone_0 <= 2
Link10_4_Drone_0 <= 2
Link10_5_Drone_0 <= 2
Link10_6_Drone_0 <= 2
Link10_7_Drone_0 <= 2
Link10_8_Drone_0 <= 2
Link10_9_Drone_0 <= 2
Link1_0_Drone_0 <= 2
Link1_10_Drone_0 <= 2
Link1_2_Drone_0 <= 2
Link1_3_Drone_0 <= 2
Link1_4_Drone_0 <= 2
Link1_8_Drone_0 <= 2
Link1_9_Drone_0 <= 2
Link2_0_Drone_0 <= 2
Link2_10_Drone_0 <= 2
Link2_1_Drone_0 <= 2
Link2_3_Drone_0 <= 2
Link2_4_Drone_0 <= 2
Link2_5_Drone_0 <= 2
Link2_6_Drone_0 <= 2
Link2_7_Drone_0 <= 2
Link2_8_Drone_0 <= 2
Link2_9_Drone_0 <= 2
Link3_10_Drone_0 <= 2
Link3_1_Drone_0 <= 2
Link3_2_Drone_0 <= 2
Link3_4_Drone_0 <= 2
Link3_5_Drone_0 <= 2
Link3_6_Drone_0 <= 2
Link3_7_Drone_0 <= 2
Link3_8_Drone_0 <= 2
Link3_9_Drone_0 <= 2
Link4_10_Drone_0 <= 2
Link4_1_Drone_0 <= 2
Link4_2_Drone_0 <= 2
Link4_3_Drone_0 <= 2
Link4_5_Drone_0 <= 2
Link4_6_Drone_0 <= 2
Link4_7_Drone_0 <= 2
Link4_8_Drone_0 <= 2
Link4_9_Drone_0 <= 2
Link5_10_Drone_0 <= 2
Link5_2_Drone_0 <= 2
Link5_3_Drone_0 <= 2
Link5_4_Drone_0 <= 2
Link5_6_Drone_0 <= 2
Link5_7_Drone_0 <= 2
Link5_8_Drone_0 <= 2
Link5_9_Drone_0 <= 2
Link6_10_Drone_0 <= 2
Link6_2_Drone_0 <= 2
Link6_3_Drone_0 <= 2
Link6_4_Drone_0 <= 2
Link6_5_Drone_0 <= 2
Link6_7_Drone_0 <= 2
Link6_8_Drone_0 <= 2
Link6_9_Drone_0 <= 2
Link7_10_Drone_0 <= 2
Link7_2_Drone_0 <= 2
Link7_3_Drone_0 <= 2
Link7_4_Drone_0 <= 2
Link7_5_Drone_0 <= 2
Link7_6_Drone_0 <= 2
Link7_8_Drone_0 <= 2
Link7_9_Drone_0 <= 2
Link8_0_Drone_0 <= 2
Link8_10_Drone_0 <= 2
Link8_1_Drone_0 <= 2
Link8_2_Drone_0 <= 2
Link8_3_Drone_0 <= 2
Link8_4_Drone_0 <= 2
Link8_5_Drone_0 <= 2
Link8_6_Drone_0 <= 2
Link8_7_Drone_0 <= 2
Link8_9_Drone_0 <= 2
Link9_0_Drone_0 <= 2
Link9_10_Drone_0 <= 2
Link9_1_Drone_0 <= 2
Link9_2_Drone_0 <= 2
Link9_3_Drone_0 <= 2
Link9_4_Drone_0 <= 2
Link9_5_Drone_0 <= 2
Link9_6_Drone_0 <= 2
Link9_7_Drone_0 <= 2
Link9_8_Drone_0 <= 2
Link9_9_Drone_0 <= 2
Time_at_node_0_Drone_0 free
Time_at_node_10_Drone_0 free
Time_at_node_1_Drone_0 free
Time_at_node_2_Drone_0 free
Time_at_node_3_Drone_0 free
Time_at_node_4_Drone_0 free
Time_at_node_5_Drone_0 free
Time_at_node_6_Drone_0 free
Time_at_node_7_Drone_0 free
Time_at_node_8_Drone_0 free
Time_at_node_9_Drone_0 free
End
